120 150

50
48
58
46
58
46
52
54
50
51
55
46
46
46
53
48
58
46
49
46
44
53
56
43
60
47
48
53
57
46
49
50
54
47
46
46
44
60
58
50
58
50
42
42
58
49
50
52
48
53
53
49
41
60
55
52
44
50
49
56
49
51
58
42
58
43
50
53
51
49
51
58
46
51
53
46
45
51
56
43
46
46
58
43
43
41
56
49
53
45
52
54
53
45
45
54
51
50
47
53
45
56
49
59
48
43
43
46
58
53
52
46
58
42
50
45
60
58
53
60